37
occ-bridge
C       1.22975607     0.71000000     0.00000000
C       0.00000000     1.42000000     0.00000000
C      -1.22975607     0.71000000     0.08000000
C      -1.22975607    -0.71000000     0.00000000
C      -0.00000000    -1.42000000     0.00000000
C       1.22975607    -0.71000000     0.00000000
C       3.68926822     0.71000000     0.00000000
C       2.45951215     1.42000000     0.00000000
C       2.45951215    -1.42000000     0.00000000
C       3.68926822    -0.71000000     0.00000000
C       2.45951215     2.84000000     0.00000000
C       1.22975607     3.55000000     0.00000000
C       0.00000000     2.84000000     0.00000000
C       4.91902429     2.84000000     0.00000000
C       3.68926822     3.55000000     0.00000000
C       4.91902429     1.42000000     0.00000000
H      -1.77476428     1.02466064     0.96997457
H      -2.16506351    -1.25000000     0.00000000
H      -0.00000000    -2.50000000     0.00000000
H       2.45951215    -2.50000000     0.00000000
H       4.62457566    -1.25000000     0.00000000
H       1.22975607     4.63000000     0.00000000
H      -0.93530744     3.38000000     0.00000000
H       5.85433173     3.38000000     0.00000000
H       3.68926822     4.63000000     0.00000000
H       5.85433173     0.88000000     0.00000000
C      -1.98476745     1.14590602    -1.15290055
C      -1.98476745     0.34340124    -2.28783935
C      -2.67977792     0.74466572    -3.42276105
C      -3.37478839     1.94843498    -3.42274395
C      -3.37478839     2.75093977    -2.28780515
C      -2.67977792     2.34967529    -1.15288345
H      -1.44475931    -0.59190150    -2.28785263
H      -2.67977792     0.12113682    -4.30458399
H      -3.91479652     2.26020883    -4.30455361
H      -3.91479652     3.68624251    -2.28779187
H      -2.67977792     2.97320418    -0.27106050
